20
5
624567
0
0
54 13 15 73 11
1
0
29 16 33 71 9
2
0
36 30 19 82 5
3
0
29 24 26 84 7
4
0
52 11 20 71 4
5
0
46 12 18 59 12
6
0
59 10 22 82 13
7
0
44 17 19 81 5
8
0
50 20 15 55 8
9
0
28 16 24 71 14
10
0
26 9 22 84 10
11
0
45 17 39 77 7
12
0
26 15 16 85 4
13
0
30 21 30 65 13
14
0
55 22 30 80 6
15
0
38 23 22 66 6
16
0
54 28 16 76 15
17
0
46 30 20 57 8
18
0
47 22 24 93 7
19
0
43 20 31 71 6
